Academic license - for non-commercial use only
Gurobi Optimizer version 9.0.3 build v9.0.3rc0 (mac64)
Optimize a model with 191914 rows, 180720 columns and 1051770 nonzeros
Model fingerprint: 0x9bee1563
Variable types: 0 continuous, 180720 integer (180720 binary)
Coefficient statistics:
  Matrix range     [1e+00, 1e+00]
  Objective range  [1e+01, 5e+04]
  Bounds range     [1e+00, 1e+00]
  RHS range        [1e+00, 5e+02]
Presolve added 0 rows and 4970 columns
Presolve removed 30 rows and 0 columns
Presolve time: 3.30s
Presolved: 191884 rows, 185690 columns, 766710 nonzeros
Variable types: 0 continuous, 185690 integer (185690 binary)
Found heuristic solution: objective 718622.00000

Concurrent LP optimizer: dual simplex and barrier
Showing barrier log only...

Root barrier log...

Ordering time: 0.05s

Barrier statistics:
 Dense cols : 360
 AA' NZ     : 5.947e+05
 Factor NZ  : 3.756e+06 (roughly 200 MBytes of memory)
 Factor Ops : 1.010e+09 (less than 1 second per iteration)
 Threads    : 3

                  Objective                Residual
Iter       Primal          Dual         Primal    Dual     Compl     Time
   0   2.06947686e+08 -2.87157417e+08  3.08e+02 3.04e+01  1.84e+04     6s
   1   1.43174921e+06 -3.57286185e+08  1.33e+00 1.16e+03  7.21e+02     6s
   2   9.80117868e+05 -1.81501588e+08  3.96e-01 5.14e+02  3.45e+02     6s
   3   8.98522113e+05 -1.04844691e+08  2.24e-01 2.92e+02  1.97e+02     7s
   4   8.02681969e+05 -3.51637386e+07  1.99e-02 9.24e+01  6.59e+01     7s
   5   7.78855514e+05 -2.09704021e+06  1.30e-03 3.91e+01  5.25e+00     7s
   6   7.44892572e+05 -1.05807525e+05  7.68e-04 1.10e+01  1.55e+00     7s
   7   7.23845092e+05  2.67823929e+05  6.01e-04 4.89e+00  8.27e-01     8s
   8   7.08696646e+05  4.36977564e+05  5.01e-04 2.49e+00  4.92e-01     8s
   9   6.88426669e+05  5.01240272e+05  3.88e-04 1.56e+00  3.38e-01     8s
  10   6.78497823e+05  5.50614722e+05  3.36e-04 8.47e-01  2.31e-01     8s
  11   6.66235935e+05  5.68257537e+05  2.71e-04 6.02e-01  1.77e-01     9s
  12   6.64496743e+05  5.78179747e+05  2.63e-04 4.70e-01  1.56e-01     9s
  13   6.52548655e+05  5.92473906e+05  2.03e-04 2.69e-01  1.08e-01     9s
  14   6.47453423e+05  5.97842678e+05  1.81e-04 1.98e-01  8.93e-02    10s
  15   6.40088144e+05  6.03080047e+05  1.46e-04 1.24e-01  6.66e-02    10s
  16   6.33732367e+05  6.05195298e+05  1.12e-04 9.46e-02  5.13e-02    10s
  17   6.29244537e+05  6.07106204e+05  8.94e-05 6.95e-02  3.98e-02    11s
  18   6.25110294e+05  6.08614328e+05  6.70e-05 5.03e-02  2.97e-02    11s
  19   6.22529831e+05  6.09515573e+05  5.41e-05 3.90e-02  2.34e-02    11s
  20   6.20762710e+05  6.10257382e+05  4.44e-05 3.02e-02  1.89e-02    11s
  21   6.19268213e+05  6.10651016e+05  3.59e-05 2.57e-02  1.55e-02    12s
  22   6.18205755e+05  6.11139465e+05  3.05e-05 2.01e-02  1.27e-02    12s
  23   6.16657076e+05  6.11476424e+05  2.21e-05 1.63e-02  9.32e-03    12s
  24   6.16190173e+05  6.11860973e+05  1.94e-05 1.25e-02  7.78e-03    12s
  25   6.15684369e+05  6.11976471e+05  1.64e-05 1.12e-02  6.67e-03    13s
  26   6.15254399e+05  6.12270761e+05  1.41e-05 8.07e-03  5.36e-03    13s
  27   6.14862684e+05  6.12374595e+05  1.17e-05 6.89e-03  4.47e-03    13s
  28   6.14540994e+05  6.12446323e+05  9.89e-06 6.11e-03  3.77e-03    13s
  29   6.14277887e+05  6.12601967e+05  8.20e-06 4.44e-03  3.01e-03    14s
  30   6.14090935e+05  6.12708847e+05  7.09e-06 3.30e-03  2.48e-03    14s
  31   6.13866071e+05  6.12783580e+05  5.69e-06 2.54e-03  1.94e-03    14s
  32   6.13692185e+05  6.12814141e+05  4.53e-06 2.21e-03  1.58e-03    14s
  33   6.13621867e+05  6.12847202e+05  4.08e-06 1.83e-03  1.39e-03    15s
  34   6.13493602e+05  6.12876129e+05  3.21e-06 1.52e-03  1.11e-03    15s
  35   6.13427678e+05  6.12915679e+05  2.80e-06 1.14e-03  9.20e-04    15s
  36   6.13338487e+05  6.12938287e+05  2.21e-06 8.97e-04  7.19e-04    16s
  37   6.13321709e+05  6.12942130e+05  2.10e-06 8.58e-04  6.82e-04    16s
  38   6.13273066e+05  6.12954767e+05  1.77e-06 7.23e-04  5.72e-04    16s
  39   6.13227670e+05  6.12962324e+05  1.45e-06 6.41e-04  4.77e-04    16s
  40   6.13202362e+05  6.12971509e+05  1.27e-06 5.49e-04  4.15e-04    17s
  41   6.13192162e+05  6.12979287e+05  1.21e-06 4.69e-04  3.82e-04    17s
  42   6.13186279e+05  6.12983693e+05  1.17e-06 4.26e-04  3.64e-04    17s
  43   6.13176509e+05  6.12986686e+05  1.10e-06 3.97e-04  3.41e-04    17s
  44   6.13137152e+05  6.12992543e+05  8.26e-07 3.38e-04  2.60e-04    18s
  45   6.13127078e+05  6.12996511e+05  7.60e-07 2.98e-04  2.35e-04    18s
  46   6.13114234e+05  6.13004120e+05  6.76e-07 2.20e-04  1.98e-04    18s
  47   6.13094672e+05  6.13007242e+05  5.31e-07 1.88e-04  1.57e-04    18s
  48   6.13087971e+05  6.13008105e+05  4.83e-07 1.78e-04  1.43e-04    19s
  49   6.13080437e+05  6.13010850e+05  4.32e-07 1.49e-04  1.25e-04    19s
  50   6.13071268e+05  6.13014214e+05  3.60e-07 1.14e-04  1.02e-04    19s
  51   6.13061269e+05  6.13015469e+05  2.82e-07 1.02e-04  8.23e-05    19s
  52   6.13056775e+05  6.13016459e+05  2.49e-07 9.17e-05  7.24e-05    20s
  53   6.13052032e+05  6.13018957e+05  2.11e-07 6.60e-05  5.94e-05    20s
  54   6.13047694e+05  6.13020034e+05  1.78e-07 5.50e-05  4.97e-05    20s
  55   6.13043451e+05  6.13021042e+05  1.46e-07 4.52e-05  4.02e-05    20s
  56   6.13041277e+05  6.13022246e+05  1.28e-07 3.28e-05  3.42e-05    21s
  57   6.13038665e+05  6.13023059e+05  1.05e-07 2.69e-05  2.80e-05    21s
  58   6.13034394e+05  6.13024161e+05  6.74e-08 1.68e-05  1.84e-05    21s
  59   6.13033586e+05  6.13024404e+05  6.02e-08 1.49e-05  1.65e-05    21s
  60   6.13032542e+05  6.13024954e+05  5.17e-08 1.08e-05  1.36e-05    22s
  61   6.13030967e+05  6.13025374e+05  3.83e-08 7.74e-06  1.00e-05    22s
  62   6.13029142e+05  6.13025814e+05  2.31e-08 4.18e-06  5.97e-06    22s
  63   6.13028764e+05  6.13026007e+05  2.08e-08 3.00e-06  4.95e-06    22s
  64   6.13027588e+05  6.13026187e+05  1.01e-08 1.65e-06  2.51e-06    23s
  65   6.13027460e+05  6.13026322e+05  9.40e-09 7.36e-07  2.04e-06    23s
  66   6.13026941e+05  6.13026334e+05  4.58e-09 6.68e-07  1.09e-06    23s
  67   6.13026689e+05  6.13026357e+05  2.24e-09 5.10e-07  5.95e-07    23s
  68   6.13026606e+05  6.13026426e+05  1.46e-09 9.22e-08  3.23e-07    23s
  69   6.13026565e+05  6.13026428e+05  1.12e-09 7.54e-08  2.44e-07    24s
  70   6.13026491e+05  6.13026441e+05  4.70e-10 6.51e-09  9.07e-08    24s
  71   6.13026491e+05  6.13026441e+05  4.68e-10 6.54e-09  9.02e-08    24s
  72   6.13026491e+05  6.13026441e+05  3.17e-08 6.30e-09  9.01e-08    24s
  73   6.13026491e+05  6.13026441e+05  3.16e-08 6.52e-09  9.00e-08    24s

Barrier solved model in 73 iterations and 24.48 seconds
Optimal objective 6.13026491e+05


Root crossover log...

   58275 DPushes remaining with DInf 0.0000000e+00                25s
    1406 DPushes remaining with DInf 0.0000000e+00                25s
       0 DPushes remaining with DInf 0.0000000e+00                26s

    1391 PPushes remaining with PInf 1.6523890e-05                26s
       0 PPushes remaining with PInf 0.0000000e+00                26s

  Push phase complete: Pinf 0.0000000e+00, Dinf 1.3487738e-01     26s


Root simplex log...

Iteration    Objective       Primal Inf.    Dual Inf.      Time
    9255    6.1302644e+05   0.000000e+00   1.348774e-01     26s
    9256    6.1302644e+05   0.000000e+00   0.000000e+00     26s

Solved with barrier

Root relaxation: objective 6.130264e+05, 9256 iterations, 20.96 seconds

    Nodes    |    Current Node    |     Objective Bounds      |     Work
 Expl Unexpl |  Obj  Depth IntInf | Incumbent    BestBd   Gap | It/Node Time

     0     0 613026.445    0 12707 718622.000 613026.445  14.7%     -   28s
H    0     0                    621624.00000 613026.445  1.38%     -   29s
     0     0 613026.445    0 12707 621624.000 613026.445  1.38%     -   79s
     0     2 613026.445    0 12707 621624.000 613026.445  1.38%     -  102s
     1     4 613217.218    1 12753 621624.000 613026.550  1.38% 12511  143s
     3     8 613347.147    2 12656 621624.000 613217.386  1.35% 10675  216s
     7    12 613471.752    3 13078 621624.000 613347.308  1.33% 12133  241s
    11    16 613636.992    3 12926 621624.000 613471.767  1.31% 10613  284s
    15    16 613830.775    4 12956 621624.000 613471.767  1.31% 10714  300s
*   16    16               4    615053.00000 613471.767  0.26% 10190  300s

Explored 17 nodes (176909 simplex iterations) in 300.46 seconds
Thread count was 8 (of 8 available processors)

Solution count 3: 615053 621624 718622 

Time limit reached
Best objective 6.150530000000e+05, best bound 6.134720000000e+05, gap 0.2571%

User-callback calls 65500, time in user-callback 0.44 sec
Solution written to /Users/mdeboute/Desktop/Etudes/Master/M2/S9/GOPP/Projet/multi-period-flp/solution/instMulti_I30_J500_T12_0_result.txt
